language Essence 1.3

letting blksize_delta be function(1 --> 6, 2 --> 6, 3 --> 6, 4 --> 6, 5 --> 6, 6 --> 6, 7 --> 6)
letting maxcars be function(1 --> 10, 2 --> 10, 3 --> 10, 4 --> 10, 5 --> 10, 6 --> 10, 7 --> 10)
letting n_cars be 178
letting n_classes be 2
letting n_options be 7
letting quantity be function(1 --> 98, 2 --> 80)
letting usage be relation((1, 1), (1, 2), (1, 3), (1, 4), (1, 5), (1, 6), (2, 7))
$ Visualisation for usage
$ 1 1
$ 1 2
$ 1 3
$ 1 4
$ 1 5
$ 1 6
$ 2 7

